22 4
69 83 18 45 13 64 33 31 102 35 84 49 55 46 72 105 94 9 60 66 49 52
69 74 48 47 33 57 35 23 82 29 85 70 70 41 71 94 110 28 63 84 61 57
78 70 33 53 22 61 20 30 107 24 92 51 72 41 77 79 84 16 75 65 51 43
71 75 19 32 38 47 11 26 96 14 98 62 66 40 63 90 101 36 79 85 48 62
